c 
c U(n,d) graph
c graph gen seed     : 3021
c number of vertices : 20
c max number of edges: 400
c Euclidean distance : 0.600000
c data structure     : dense
c
c           Graph Stats
c number of vertices  : 20
c nonisolated vertices: 20
c number of edges     : 106
c edge density        : 0.557895
c max degree          : 19
c avg degree          : 10.60
c min degree          : 6
p col 20 106
e 1 5
e 1 6
e 1 7
e 1 11
e 1 17
e 1 19
e 2 3
e 2 4
e 2 7
e 2 9
e 2 10
e 2 11
e 2 12
e 2 13
e 2 14
e 2 15
e 2 16
e 2 20
e 3 4
e 3 6
e 3 7
e 3 8
e 3 10
e 3 11
e 3 12
e 3 13
e 3 15
e 3 16
e 3 17
e 3 19
e 3 20
e 4 7
e 4 10
e 4 12
e 4 13
e 4 14
e 4 15
e 4 16
e 4 20
e 5 7
e 5 9
e 5 10
e 5 11
e 5 16
e 6 7
e 6 8
e 6 11
e 6 15
e 6 17
e 6 19
e 6 20
e 7 8
e 7 9
e 7 10
e 7 11
e 7 12
e 7 13
e 7 14
e 7 15
e 7 16
e 7 17
e 7 18
e 7 19
e 7 20
e 8 15
e 8 17
e 8 19
e 8 20
e 9 10
e 9 11
e 9 12
e 9 13
e 9 14
e 9 16
e 9 18
e 10 11
e 10 12
e 10 13
e 10 14
e 10 16
e 10 18
e 11 12
e 11 13
e 11 14
e 11 16
e 11 17
e 11 18
e 11 19
e 12 13
e 12 14
e 12 15
e 12 16
e 12 18
e 12 20
e 13 14
e 13 16
e 13 18
e 14 16
e 14 18
e 15 17
e 15 19
e 15 20
e 16 18
e 17 19
e 17 20
e 19 20
